NAME          
ROWS
 N  OBJ
 L  c1
COLUMNS
    MARKER    'MARKER'                 'INTORG'
    x[1]      c1        120
    x[1]      OBJ       -797
    x[2]      c1        897
    x[2]      OBJ       -272
    x[3]      c1        313
    x[3]      OBJ       -386
    x[4]      c1        311
    x[4]      OBJ       -808
    x[5]      c1        978
    x[5]      OBJ       -429
RHS
    rhs       c1        1310
RANGES
BOUNDS
 BV bounds    x[1]
 BV bounds    x[2]
 BV bounds    x[3]
 BV bounds    x[4]
 BV bounds    x[5]
ENDATA
